(declare-const |param0':303| Int)
(declare-const havoc Int)
(declare-const |havoc:2| Int)
(declare-const |return':302| Int)
(declare-const |param1':304| Int)
(assert (and (= (+ |param0':303| (- havoc) (- |havoc:2|)) 0)
               (= (+ |return':302| (- havoc) (- |havoc:2|)) 0)
               (= |param1':304| 0) (<= (+ (- havoc) 100) 0)
               (<= (+ (- |havoc:2|) 100) 0) (< (+ |return':302| -200) 0)))
(check-sat)
